<number of tasks>
70

<cycle time>
160

<task times>
1 17
2 66
3 54
4 52
5 6
6 88
7 21
8 128
9 68
10 70
11 85
12 21
13 134
14 135
15 94
16 90
17 50
18 143
19 19
20 54
21 50
22 40
23 73
24 12
25 152
26 42
27 45
28 74
29 26
30 11
31 31
32 50
33 102
34 46
35 35
36 40
37 2
38 1
39 3
40 13
41 16
42 25
43 21
44 43
45 30
46 83
47 89
48 56
49 59
50 43
51 11
52 26
53 44
54 121
55 38
56 68
57 22
58 7
59 16
60 32
61 25
62 27
63 156
64 28
65 15
66 26
67 18
68 72
69 23
70 27

<precedence relations>
1,2
1,41
1,69
1,70
2,3
3,4
3,68
4,6
4,7
5,6
5,24
5,30
6,8
7,8
8,12
9,10
10,11
11,12
12,13
12,14
13,23
14,23
15,16
16,17
16,18
17,19
18,19
19,20
19,22
19,57
20,21
21,23
22,23
23,25
23,31
23,33
24,25
25,26
25,27
25,28
25,29
26,35
27,35
28,35
29,35
30,31
31,32
32,35
33,34
34,35
35,36
35,44
35,48
35,51
35,53
35,56
35,60
35,61
35,62
36,37
37,38
38,39
39,40
40,42
41,42
42,43
43,50
44,45
45,46
46,47
47,50
48,49
49,50
51,52
52,54
53,54
54,55
57,58
58,59
59,60
61,65
62,63
63,64
64,65
64,66
64,67

<setup times forward>
1,9:5
1,10:4
1,15:15
1,16:5
1,17:4
1,18:13
1,19:8
1,20:17
1,21:17
1,22:17
1,30:15
1,41:4
1,57:5
1,58:17
1,59:10
1,70:8
2,9:5
2,10:4
2,15:15
2,16:5
2,17:4
2,18:13
2,19:8
2,20:17
2,21:17
2,22:17
2,30:15
2,41:4
2,57:5
2,58:17
2,59:10
2,70:8
3,4:15
3,9:5
3,10:4
3,15:15
3,16:5
3,17:4
3,18:13
3,19:8
3,20:17
3,21:17
3,22:17
3,30:15
3,41:4
3,57:5
3,58:17
3,59:10
3,68:5
3,70:8
4,5:15
4,6:10
4,7:11
4,9:20
4,10:11
4,11:15
4,16:20
4,17:11
4,18:28
4,19:7
4,20:32
4,21:32
4,22:32
4,24:15
4,41:11
4,57:20
4,58:32
4,59:5
4,68:10
4,69:15
4,70:23
5,4:15
5,6:5
5,7:4
5,9:5
5,10:4
5,15:15
5,16:5
5,17:4
5,18:13
5,19:8
5,20:17
5,21:17
5,22:17
5,30:15
5,41:4
5,57:5
5,58:17
5,59:10
5,68:5
5,70:8
6,7:1
6,8:13
6,9:10
6,10:1
6,11:5
6,15:10
6,16:10
6,17:1
6,18:18
6,19:3
6,20:22
6,21:22
6,22:22
6,24:5
6,30:10
6,41:1
6,57:10
6,58:22
6,59:5
6,69:5
6,70:13
7,5:4
7,6:1
7,8:12
7,9:9
7,11:4
7,15:11
7,16:9
7,18:17
7,19:4
7,20:21
7,21:21
7,22:21
7,24:4
7,30:11
7,57:9
7,58:21
7,59:6
7,68:1
7,69:4
7,70:12
8,9:3
8,10:12
8,11:8
8,12:8
8,15:23
8,16:3
8,17:12
8,18:5
8,19:16
8,20:9
8,21:9
8,22:9
8,24:8
8,30:23
8,41:12
8,57:3
8,58:9
8,59:18
8,68:13
8,69:8
9,1:5
9,2:5
9,3:5
9,4:20
9,5:5
9,6:10
9,7:9
9,8:3
9,10:9
9,15:20
9,17:9
9,18:8
9,19:13
9,20:12
9,21:12
9,22:12
9,24:5
9,30:20
9,41:9
9,58:12
9,59:15
9,68:10
9,69:5
9,70:3
10,1:4
10,2:4
10,3:4
10,4:11
10,5:4
10,6:1
10,8:12
10,11:4
10,15:11
10,16:9
10,18:17
10,19:4
10,20:21
10,21:21
10,22:21
10,24:4
10,30:11
10,57:9
10,58:21
10,59:6
10,68:1
10,69:4
10,70:12
11,4:15
11,6:5
11,7:4
11,8:8
11,15:15
11,16:5
11,17:4
11,18:13
11,19:8
11,20:17
11,21:17
11,22:17
11,30:15
11,41:4
11,57:5
11,58:17
11,59:10
11,68:5
11,70:8
12,13:5
12,14:8
12,15:15
12,16:5
12,17:4
12,18:13
12,19:8
12,20:17
12,21:17
12,22:17
12,30:15
12,41:4
12,57:5
12,58:17
12,59:10
12,68:5
12,70:8
13,14:13
13,15:20
13,17:9
13,18:8
13,19:13
13,20:12
13,21:12
13,22:12
13,23:3
13,24:5
13,30:20
13,41:9
13,58:12
13,59:15
13,68:10
13,69:5
13,70:3
14,13:13
14,15:7
14,16:13
14,17:4
14,18:21
14,20:25
14,21:25
14,22:25
14,23:10
14,24:8
14,30:7
14,41:4
14,57:13
14,58:25
14,59:2
14,68:3
14,69:8
14,70:16
15,1:15
15,2:15
15,3:15
15,5:15
15,6:10
15,7:11
15,8:23
15,9:20
15,10:11
15,11:15
15,12:15
15,13:20
15,14:7
15,16:20
15,24:15
15,41:11
15,68:10
15,69:15
15,70:23
16,1:5
16,2:5
16,3:5
16,4:20
16,5:5
16,6:10
16,7:9
16,8:3
16,10:9
16,11:5
16,12:5
16,14:13
16,17:9
16,18:8
16,24:5
16,30:20
16,41:9
16,68:10
16,69:5
16,70:3
17,1:4
17,2:4
17,3:4
17,4:11
17,5:4
17,6:1
17,8:12
17,9:9
17,11:4
17,12:4
17,13:9
17,14:4
17,18:17
17,19:4
17,24:4
17,30:11
17,68:1
17,69:4
17,70:12
18,1:13
18,2:13
18,3:13
18,4:28
18,5:13
18,6:18
18,7:17
18,8:5
18,9:8
18,10:17
18,11:13
18,12:13
18,13:8
18,14:21
18,17:17
18,19:21
18,24:13
18,30:28
18,41:17
18,68:18
18,69:13
18,70:5
19,1:8
19,2:8
19,3:8
19,4:7
19,5:8
19,6:3
19,7:4
19,8:16
19,9:13
19,10:4
19,11:8
19,12:8
19,13:13
19,20:25
19,22:25
19,24:8
19,30:7
19,41:4
19,57:13
19,68:3
19,69:8
19,70:16
20,1:17
20,2:17
20,3:17
20,4:32
20,5:17
20,6:22
20,7:21
20,8:9
20,9:12
20,10:21
20,11:17
20,12:17
20,13:12
20,14:25
20,24:17
20,30:32
20,41:21
20,57:12
20,59:27
20,68:22
20,69:17
20,70:9
21,1:17
21,2:17
21,3:17
21,4:32
21,5:17
21,6:22
21,7:21
21,8:9
21,9:12
21,10:21
21,11:17
21,12:17
21,13:12
21,14:25
21,23:15
21,24:17
21,30:32
21,41:21
21,57:12
21,59:27
21,68:22
21,69:17
21,70:9
22,1:17
22,2:17
22,3:17
22,4:32
22,5:17
22,6:22
22,7:21
22,8:9
22,9:12
22,10:21
22,11:17
22,12:17
22,13:12
22,14:25
22,23:15
22,24:17
22,30:32
22,41:21
22,57:12
22,59:27
22,68:22
22,69:17
22,70:9
23,24:2
23,25:6
23,30:17
23,33:13
23,41:6
23,57:3
23,58:15
23,59:12
23,68:7
23,69:2
23,70:6
24,4:15
24,6:5
24,7:4
24,8:8
24,9:5
24,10:4
24,13:5
24,14:8
24,15:15
24,16:5
24,17:4
24,18:13
24,19:8
24,20:17
24,21:17
24,22:17
24,23:2
24,25:4
24,30:15
24,31:2
24,32:2
24,33:11
24,34:11
24,41:4
24,57:5
24,58:17
24,59:10
24,68:5
24,70:8
25,26:21
25,27:23
25,28:23
25,29:23
25,30:11
25,31:6
25,32:6
25,33:7
25,34:7
25,57:9
25,58:21
25,59:6
25,68:1
25,69:4
25,70:12
26,27:2
26,28:2
26,29:2
26,30:32
26,31:15
26,32:15
26,33:28
26,34:28
26,41:21
26,57:12
26,59:27
26,68:22
26,69:17
26,70:9
27,26:2
27,30:34
27,31:17
27,32:17
27,33:30
27,34:30
27,35:2
27,41:23
27,57:14
27,58:2
27,59:29
27,68:24
27,69:19
27,70:11
28,26:2
28,30:34
28,31:17
28,32:17
28,33:30
28,34:30
28,35:2
28,41:23
28,57:14
28,58:2
28,59:29
28,68:24
28,69:19
28,70:11
29,26:2
29,30:34
29,31:17
29,32:17
29,33:30
29,34:30
29,35:2
29,41:23
29,57:14
29,58:2
29,59:29
29,68:24
29,69:19
29,70:11
30,1:15
30,2:15
30,3:15
30,6:10
30,7:11
30,8:23
30,9:20
30,10:11
30,11:15
30,12:15
30,13:20
30,14:7
30,16:20
30,17:11
30,18:28
30,19:7
30,20:32
30,21:32
30,22:32
30,23:17
30,24:15
30,25:11
30,26:32
30,27:34
30,28:34
30,29:34
30,31:17
30,33:4
30,34:4
30,41:11
30,57:20
30,58:32
30,59:5
30,68:10
30,69:15
30,70:23
31,24:2
31,25:6
31,26:15
31,27:17
31,28:17
31,29:17
31,33:13
31,34:13
31,41:6
31,57:3
31,58:15
31,59:12
31,68:7
31,69:2
31,70:6
32,24:2
32,25:6
32,26:15
32,27:17
32,28:17
32,29:17
32,33:13
32,34:13
32,35:15
32,41:6
32,57:3
32,58:15
32,59:12
32,68:7
32,69:2
32,70:6
33,24:11
33,25:7
33,26:28
33,27:30
33,28:30
33,29:30
33,30:4
33,31:13
33,32:13
33,41:7
33,57:16
33,58:28
33,59:1
33,68:6
33,69:11
33,70:19
34,24:11
34,25:7
34,26:28
34,27:30
34,28:30
34,29:30
34,30:4
34,31:13
34,32:13
34,35:28
34,41:7
34,57:16
34,58:28
34,59:1
34,68:6
34,69:11
34,70:19
35,36:28
35,41:21
35,48:27
35,53:31
35,56:27
35,57:12
35,59:27
35,60:4
35,61:4
35,68:22
35,69:17
35,70:9
36,41:7
36,44:28
36,45:3
36,46:3
36,48:1
36,49:2
36,51:28
36,52:7
36,53:3
36,54:7
36,55:2
36,56:1
36,57:16
36,58:28
36,59:1
36,60:24
36,61:24
36,62:28
36,63:14
36,65:2
36,66:24
36,67:24
36,68:6
36,69:11
36,70:19
37,41:7
37,44:28
37,45:3
37,46:3
37,48:1
37,49:2
37,51:28
37,52:7
37,53:3
37,54:7
37,55:2
37,56:1
37,57:16
37,58:28
37,59:1
37,60:24
37,61:24
37,62:28
37,63:14
37,65:2
37,66:24
37,67:24
37,68:6
37,69:11
37,70:19
38,39:1
38,41:7
38,44:28
38,45:3
38,46:3
38,48:1
38,49:2
38,51:28
38,52:7
38,53:3
38,54:7
38,55:2
38,56:1
38,57:16
38,58:28
38,59:1
38,60:24
38,61:24
38,62:28
38,63:14
38,65:2
38,66:24
38,67:24
38,68:6
38,69:11
38,70:19
39,41:6
39,44:27
39,45:4
39,46:4
39,47:1
39,49:1
39,51:27
39,52:6
39,53:4
39,54:6
39,55:1
39,57:15
39,58:27
39,60:23
39,61:23
39,62:27
39,63:13
39,64:1
39,65:1
39,66:23
39,67:23
39,68:5
39,69:10
39,70:18
40,41:6
40,42:23
40,44:27
40,45:4
40,46:4
40,47:1
40,49:1
40,51:27
40,52:6
40,53:4
40,54:6
40,55:1
40,57:15
40,58:27
40,60:23
40,61:23
40,62:27
40,63:13
40,64:1
40,65:1
40,66:23
40,67:23
40,68:5
40,69:10
40,70:18
41,2:4
41,3:4
41,4:11
41,5:4
41,6:1
41,8:12
41,9:9
41,11:4
41,12:4
41,13:9
41,14:4
41,15:11
41,16:9
41,18:17
41,19:4
41,20:21
41,21:21
41,22:21
41,23:6
41,24:4
41,26:21
41,27:23
41,28:23
41,29:23
41,30:11
41,31:6
41,32:6
41,33:7
41,34:7
41,35:21
41,36:7
41,37:7
41,38:7
41,39:6
41,40:6
41,42:17
41,44:21
41,45:10
41,46:10
41,47:7
41,48:6
41,49:5
41,51:21
41,53:10
41,55:5
41,56:6
41,57:9
41,58:21
41,59:6
41,60:17
41,61:17
41,62:21
41,63:7
41,64:7
41,65:5
41,66:17
41,67:17
41,68:1
41,69:4
41,70:12
42,44:4
42,45:27
42,46:27
42,47:24
42,48:23
42,49:22
42,51:4
42,52:17
42,53:27
42,54:17
42,55:22
42,56:23
42,57:8
42,58:4
42,59:23
42,62:4
42,63:10
42,64:24
42,65:22
42,68:18
42,69:13
42,70:5
43,44:4
43,45:27
43,46:27
43,47:24
43,48:23
43,49:22
43,50:22
43,51:4
43,52:17
43,53:27
43,54:17
43,55:22
43,56:23
43,57:8
43,58:4
43,59:23
43,62:4
43,63:10
43,64:24
43,65:22
43,68:18
43,69:13
43,70:5
44,36:28
44,37:28
44,38:28
44,39:27
44,40:27
44,41:21
44,42:4
44,43:4
44,45:31
44,48:27
44,49:26
44,52:21
44,53:31
44,54:21
44,55:26
44,56:27
44,57:12
44,59:27
44,60:4
44,61:4
44,63:14
44,64:28
44,65:26
44,66:4
44,67:4
44,68:22
44,69:17
44,70:9
45,36:3
45,37:3
45,38:3
45,39:4
45,40:4
45,41:10
45,42:27
45,43:27
45,48:4
45,49:5
45,51:31
45,52:10
45,54:10
45,55:5
45,56:4
45,57:19
45,58:31
45,59:4
45,60:27
45,61:27
45,62:31
45,63:17
45,64:3
45,65:5
45,66:27
45,67:27
45,68:9
45,69:14
45,70:22
46,36:3
46,37:3
46,38:3
46,39:4
46,40:4
46,41:10
46,42:27
46,43:27
46,47:3
46,48:4
46,49:5
46,51:31
46,52:10
46,54:10
46,55:5
46,56:4
46,57:19
46,58:31
46,59:4
46,60:27
46,61:27
46,62:31
46,63:17
46,64:3
46,65:5
46,66:27
46,67:27
46,68:9
46,69:14
46,70:22
47,39:1
47,40:1
47,41:7
47,42:24
47,43:24
47,48:1
47,49:2
47,50:2
47,51:28
47,52:7
47,53:3
47,54:7
47,55:2
47,56:1
47,57:16
47,58:28
47,59:1
47,60:24
47,61:24
47,62:28
47,63:14
47,65:2
47,66:24
47,67:24
47,68:6
47,69:11
47,70:19
48,36:1
48,37:1
48,38:1
48,41:6
48,42:23
48,43:23
48,44:27
48,45:4
48,46:4
48,47:1
48,49:1
48,51:27
48,52:6
48,53:4
48,54:6
48,55:1
48,57:15
48,58:27
48,60:23
48,61:23
48,62:27
48,63:13
48,64:1
48,65:1
48,66:23
48,67:23
48,68:5
48,69:10
48,70:18
49,36:2
49,37:2
49,38:2
49,39:1
49,40:1
49,41:5
49,42:22
49,43:22
49,44:26
49,45:5
49,46:5
49,47:2
49,51:26
49,52:5
49,53:5
49,54:5
49,56:1
49,57:14
49,58:26
49,59:1
49,60:22
49,61:22
49,62:26
49,63:12
49,64:2
49,66:22
49,67:22
49,68:4
49,69:9
49,70:17
50,51:26
50,52:5
50,53:5
50,54:5
50,56:1
50,57:14
50,58:26
50,59:1
50,60:22
50,61:22
50,62:26
50,63:12
50,64:2
50,66:22
50,67:22
50,68:4
50,69:9
50,70:17
51,36:28
51,37:28
51,38:28
51,39:27
51,40:27
51,41:21
51,42:4
51,43:4
51,45:31
51,46:31
51,47:28
51,48:27
51,49:26
51,50:26
51,52:21
51,53:31
51,56:27
51,57:12
51,59:27
51,60:4
51,61:4
51,63:14
51,64:28
51,65:26
51,66:4
51,67:4
51,68:22
51,69:17
51,70:9
52,36:7
52,37:7
52,38:7
52,39:6
52,40:6
52,42:17
52,43:17
52,44:21
52,45:10
52,46:10
52,47:7
52,48:6
52,49:5
52,50:5
52,53:10
52,56:6
52,57:9
52,58:21
52,59:6
52,60:17
52,61:17
52,62:21
52,63:7
52,64:7
52,65:5
52,66:17
52,67:17
52,68:1
52,69:4
52,70:12
53,36:3
53,37:3
53,38:3
53,39:4
53,40:4
53,41:10
53,42:27
53,43:27
53,44:31
53,47:3
53,48:4
53,49:5
53,50:5
53,51:31
53,52:10
53,54:10
53,56:4
53,57:19
53,58:31
53,59:4
53,60:27
53,61:27
53,62:31
53,63:17
53,64:3
53,65:5
53,66:27
53,67:27
53,68:9
53,69:14
53,70:22
54,36:7
54,37:7
54,38:7
54,39:6
54,40:6
54,42:17
54,43:17
54,44:21
54,45:10
54,46:10
54,47:7
54,48:6
54,49:5
54,50:5
54,55:5
54,56:6
54,57:9
54,58:21
54,59:6
54,60:17
54,61:17
54,62:21
54,63:7
54,64:7
54,65:5
54,66:17
54,67:17
54,68:1
54,69:4
54,70:12
55,36:2
55,37:2
55,38:2
55,39:1
55,40:1
55,41:5
55,42:22
55,43:22
55,44:26
55,45:5
55,46:5
55,47:2
55,48:1
55,56:1
55,57:14
55,58:26
55,59:1
55,60:22
55,61:22
55,62:26
55,63:12
55,64:2
55,66:22
55,67:22
55,68:4
55,69:9
55,70:17
56,36:1
56,37:1
56,38:1
56,41:6
56,42:23
56,43:23
56,44:27
56,45:4
56,46:4
56,47:1
56,49:1
56,50:1
56,51:27
56,52:6
56,53:4
56,54:6
56,55:1
56,57:15
56,58:27
56,60:23
56,61:23
56,62:27
56,63:13
56,64:1
56,65:1
56,66:23
56,67:23
56,68:5
56,69:10
56,70:18
57,1:5
57,2:5
57,3:5
57,4:20
57,5:5
57,6:10
57,7:9
57,8:3
57,10:9
57,11:5
57,12:5
57,14:13
57,20:12
57,21:12
57,22:12
57,23:3
57,24:5
57,25:9
57,26:12
57,27:14
57,28:14
57,29:14
57,30:20
57,31:3
57,32:3
57,33:16
57,34:16
57,35:12
57,36:16
57,37:16
57,38:16
57,39:15
57,40:15
57,41:9
57,42:8
57,43:8
57,44:12
57,45:19
57,46:19
57,47:16
57,48:15
57,49:14
57,50:14
57,51:12
57,52:9
57,53:19
57,54:9
57,55:14
57,56:15
57,58:12
57,61:8
57,62:12
57,63:2
57,64:16
57,65:14
57,66:8
57,67:8
57,68:10
57,69:5
57,70:3
58,1:17
58,2:17
58,3:17
58,4:32
58,5:17
58,6:22
58,7:21
58,8:9
58,9:12
58,10:21
58,11:17
58,12:17
58,13:12
58,14:25
58,23:15
58,24:17
58,25:21
58,27:2
58,28:2
58,29:2
58,30:32
58,31:15
58,32:15
58,33:28
58,34:28
58,36:28
58,37:28
58,38:28
58,39:27
58,40:27
58,41:21
58,42:4
58,43:4
58,45:31
58,46:31
58,47:28
58,48:27
58,49:26
58,50:26
58,52:21
58,53:31
58,54:21
58,55:26
58,56:27
58,59:27
58,61:4
58,63:14
58,64:28
58,65:26
58,66:4
58,67:4
58,68:22
58,69:17
58,70:9
59,1:10
59,2:10
59,3:10
59,4:5
59,5:10
59,6:5
59,7:6
59,8:18
59,9:15
59,10:6
59,11:10
59,12:10
59,13:15
59,14:2
59,20:27
59,21:27
59,22:27
59,23:12
59,24:10
59,25:6
59,26:27
59,27:29
59,28:29
59,29:29
59,30:5
59,31:12
59,32:12
59,33:1
59,34:1
59,35:27
59,36:1
59,37:1
59,38:1
59,41:6
59,42:23
59,43:23
59,44:27
59,45:4
59,46:4
59,47:1
59,49:1
59,50:1
59,51:27
59,52:6
59,53:4
59,54:6
59,55:1
59,60:23
59,61:23
59,62:27
59,63:13
59,64:1
59,65:1
59,66:23
59,67:23
59,68:5
59,69:10
59,70:18
60,36:24
60,37:24
60,38:24
60,39:23
60,40:23
60,41:17
60,44:4
60,45:27
60,46:27
60,47:24
60,48:23
60,49:22
60,50:22
60,51:4
60,52:17
60,53:27
60,54:17
60,55:22
60,56:23
60,62:4
60,63:10
60,64:24
60,65:22
60,68:18
60,69:13
60,70:5
61,36:24
61,37:24
61,38:24
61,39:23
61,40:23
61,41:17
61,44:4
61,45:27
61,46:27
61,47:24
61,48:23
61,49:22
61,50:22
61,51:4
61,52:17
61,53:27
61,54:17
61,55:22
61,56:23
61,57:8
61,58:4
61,59:23
61,62:4
61,63:10
61,64:24
61,65:22
61,68:18
61,69:13
61,70:5
62,36:28
62,37:28
62,38:28
62,39:27
62,40:27
62,41:21
62,42:4
62,43:4
62,45:31
62,46:31
62,47:28
62,48:27
62,49:26
62,50:26
62,52:21
62,53:31
62,54:21
62,55:26
62,56:27
62,57:12
62,59:27
62,60:4
62,61:4
62,63:14
62,68:22
62,69:17
62,70:9
63,36:14
63,37:14
63,38:14
63,39:13
63,40:13
63,41:7
63,42:10
63,43:10
63,44:14
63,45:17
63,46:17
63,47:14
63,48:13
63,49:12
63,50:12
63,51:14
63,52:7
63,53:17
63,54:7
63,55:12
63,56:13
63,57:2
63,58:14
63,59:13
63,60:10
63,61:10
63,64:14
63,68:8
63,69:3
63,70:5
64,39:1
64,40:1
64,41:7
64,42:24
64,43:24
64,44:28
64,45:3
64,46:3
64,48:1
64,49:2
64,50:2
64,51:28
64,52:7
64,53:3
64,54:7
64,55:2
64,56:1
64,57:16
64,58:28
64,59:1
64,60:24
64,61:24
64,65:2
64,66:24
64,67:24
64,68:6
64,69:11
64,70:19
65,36:2
65,37:2
65,38:2
65,39:1
65,40:1
65,41:5
65,42:22
65,43:22
65,44:26
65,45:5
65,46:5
65,47:2
65,48:1
65,51:26
65,52:5
65,53:5
65,54:5
65,56:1
65,57:14
65,58:26
65,59:1
65,60:22
65,66:22
65,67:22
65,68:4
65,69:9
65,70:17
66,36:24
66,37:24
66,38:24
66,39:23
66,40:23
66,41:17
66,44:4
66,45:27
66,46:27
66,47:24
66,48:23
66,49:22
66,50:22
66,51:4
66,52:17
66,53:27
66,54:17
66,55:22
66,56:23
66,57:8
66,58:4
66,59:23
66,65:22
66,68:18
66,69:13
66,70:5
67,36:24
67,37:24
67,38:24
67,39:23
67,40:23
67,41:17
67,44:4
67,45:27
67,46:27
67,47:24
67,48:23
67,49:22
67,50:22
67,51:4
67,52:17
67,53:27
67,54:17
67,55:22
67,56:23
67,57:8
67,58:4
67,59:23
67,65:22
67,68:18
67,69:13
67,70:5
68,4:10
68,5:5
68,7:1
68,8:13
68,9:10
68,10:1
68,11:5
68,12:5
68,13:10
68,14:3
68,15:10
68,16:10
68,17:1
68,18:18
68,19:3
68,20:22
68,21:22
68,22:22
68,23:7
68,24:5
68,25:1
68,26:22
68,27:24
68,28:24
68,29:24
68,30:10
68,31:7
68,32:7
68,33:6
68,34:6
68,35:22
68,36:6
68,37:6
68,38:6
68,39:5
68,40:5
68,41:1
68,42:18
68,43:18
68,44:22
68,45:9
68,46:9
68,47:6
68,48:5
68,49:4
68,50:4
68,51:22
68,52:1
68,53:9
68,54:1
68,55:4
68,56:5
68,57:10
68,58:22
68,59:5
68,60:18
68,61:18
68,62:22
68,63:8
68,64:6
68,65:4
68,66:18
68,67:18
68,69:5
68,70:13
69,4:15
69,6:5
69,7:4
69,8:8
69,9:5
69,10:4
69,13:5
69,14:8
69,15:15
69,16:5
69,17:4
69,18:13
69,19:8
69,20:17
69,21:17
69,22:17
69,23:2
69,25:4
69,26:17
69,27:19
69,28:19
69,29:19
69,30:15
69,31:2
69,32:2
69,33:11
69,34:11
69,35:17
69,36:11
69,37:11
69,38:11
69,39:10
69,40:10
69,41:4
69,42:13
69,43:13
69,44:17
69,45:14
69,46:14
69,47:11
69,48:10
69,49:9
69,50:9
69,51:17
69,52:4
69,53:14
69,54:4
69,55:9
69,56:10
69,57:5
69,58:17
69,59:10
69,60:13
69,61:13
69,62:17
69,63:3
69,64:11
69,65:9
69,66:13
69,67:13
69,68:5
69,70:8
70,2:8
70,3:8
70,4:23
70,5:8
70,6:13
70,7:12
70,9:3
70,10:12
70,11:8
70,12:8
70,13:3
70,14:16
70,15:23
70,16:3
70,17:12
70,18:5
70,19:16
70,20:9
70,21:9
70,22:9
70,23:6
70,24:8
70,25:12
70,26:9
70,27:11
70,28:11
70,29:11
70,30:23
70,31:6
70,32:6
70,33:19
70,34:19
70,35:9
70,36:19
70,37:19
70,38:19
70,39:18
70,40:18
70,41:12
70,42:5
70,43:5
70,44:9
70,45:22
70,46:22
70,47:19
70,48:18
70,49:17
70,50:17
70,51:9
70,52:12
70,53:22
70,54:12
70,55:17
70,56:18
70,57:3
70,58:9
70,59:18
70,60:5
70,61:5
70,62:9
70,63:5
70,64:19
70,65:17
70,66:5
70,67:5
70,68:13
70,69:8

<setup times backward>
1,9:5
1,16:5
1,18:13
1,20:17
1,21:17
1,22:17
1,57:5
1,58:17
2,9:5
2,16:5
2,18:13
2,20:17
2,21:17
2,22:17
2,57:5
2,58:17
2,70:8
3,9:5
3,16:5
3,18:13
3,20:17
3,21:17
3,22:17
3,57:5
3,58:17
3,70:8
4,1:15
4,2:15
4,3:15
4,5:15
4,9:20
4,10:11
4,11:15
4,16:20
4,17:11
4,18:28
4,19:7
4,20:32
4,21:32
4,22:32
4,24:15
4,41:11
4,57:20
4,58:32
4,59:5
4,68:10
4,69:15
4,70:23
5,9:5
5,16:5
5,18:13
5,20:17
5,21:17
5,22:17
5,57:5
5,58:17
5,70:8
6,1:5
6,2:5
6,3:5
6,5:5
6,7:1
6,9:10
6,10:1
6,11:5
6,16:10
6,17:1
6,18:18
6,20:22
6,21:22
6,22:22
6,24:5
6,41:1
6,57:10
6,58:22
6,69:5
6,70:13
7,1:4
7,2:4
7,3:4
7,5:4
7,9:9
7,11:4
7,16:9
7,18:17
7,20:21
7,21:21
7,22:21
7,24:4
7,57:9
7,58:21
7,69:4
7,70:12
8,18:5
8,20:9
8,21:9
8,22:9
8,58:9
9,8:3
9,18:8
9,20:12
9,21:12
9,22:12
9,58:12
9,70:3
10,1:4
10,2:4
10,3:4
10,5:4
10,8:12
10,9:9
10,16:9
10,18:17
10,20:21
10,21:21
10,22:21
10,24:4
10,57:9
10,58:21
10,69:4
10,70:12
11,8:8
11,9:5
11,16:5
11,18:13
11,20:17
11,21:17
11,22:17
11,57:5
11,58:17
11,70:8
12,8:8
12,9:5
12,16:5
12,18:13
12,20:17
12,21:17
12,22:17
12,57:5
12,58:17
12,70:8
13,8:3
13,18:8
13,20:12
13,21:12
13,22:12
13,58:12
13,70:3
14,1:8
14,2:8
14,3:8
14,5:8
14,6:3
14,7:4
14,8:16
14,9:13
14,10:4
14,11:8
14,12:8
14,13:13
14,16:13
14,17:4
14,18:21
14,20:25
14,21:25
14,22:25
14,24:8
14,41:4
14,57:13
14,58:25
14,68:3
14,69:8
14,70:16
15,1:15
15,2:15
15,3:15
15,5:15
15,6:10
15,7:11
15,8:23
15,9:20
15,10:11
15,11:15
15,12:15
15,13:20
15,14:7
15,24:15
15,41:11
15,68:10
15,69:15
15,70:23
16,8:3
16,70:3
17,1:4
17,2:4
17,3:4
17,5:4
17,8:12
17,9:9
17,11:4
17,12:4
17,13:9
17,16:9
17,18:17
17,24:4
17,69:4
17,70:12
19,1:8
19,2:8
19,3:8
19,5:8
19,6:3
19,7:4
19,8:16
19,9:13
19,10:4
19,11:8
19,12:8
19,13:13
19,16:13
19,17:4
19,18:21
19,24:8
19,41:4
19,68:3
19,69:8
19,70:16
23,8:6
23,9:3
23,13:3
23,16:3
23,18:11
23,20:15
23,21:15
23,22:15
23,57:3
23,58:15
23,70:6
24,8:8
24,9:5
24,13:5
24,16:5
24,18:13
24,20:17
24,21:17
24,22:17
24,23:2
24,31:2
24,32:2
24,57:5
24,58:17
24,70:8
25,1:4
25,2:4
25,3:4
25,5:4
25,8:12
25,9:9
25,11:4
25,12:4
25,13:9
25,16:9
25,18:17
25,20:21
25,21:21
25,22:21
25,23:6
25,24:4
25,31:6
25,32:6
25,57:9
25,58:21
25,69:4
25,70:12
26,27:2
26,28:2
26,29:2
30,1:15
30,2:15
30,3:15
30,5:15
30,6:10
30,7:11
30,8:23
30,9:20
30,10:11
30,11:15
30,12:15
30,13:20
30,14:7
30,16:20
30,17:11
30,18:28
30,19:7
30,20:32
30,21:32
30,22:32
30,23:17
30,24:15
30,25:11
30,26:32
30,27:34
30,28:34
30,29:34
30,33:4
30,34:4
30,41:11
30,57:20
30,58:32
30,59:5
30,68:10
30,69:15
30,70:23
31,8:6
31,9:3
31,13:3
31,16:3
31,18:11
31,20:15
31,21:15
31,22:15
31,26:15
31,27:17
31,28:17
31,29:17
31,57:3
31,58:15
31,70:6
32,8:6
32,9:3
32,13:3
32,16:3
32,18:11
32,20:15
32,21:15
32,22:15
32,26:15
32,27:17
32,28:17
32,29:17
32,57:3
32,58:15
32,70:6
33,1:11
33,2:11
33,3:11
33,5:11
33,6:6
33,7:7
33,8:19
33,9:16
33,10:7
33,11:11
33,12:11
33,13:16
33,14:3
33,16:16
33,17:7
33,18:24
33,19:3
33,20:28
33,21:28
33,22:28
33,23:13
33,24:11
33,25:7
33,26:28
33,27:30
33,28:30
33,29:30
33,31:13
33,32:13
33,41:7
33,57:16
33,58:28
33,59:1
33,68:6
33,69:11
33,70:19
34,1:11
34,2:11
34,3:11
34,5:11
34,6:6
34,7:7
34,8:19
34,9:16
34,10:7
34,11:11
34,12:11
34,13:16
34,14:3
34,16:16
34,17:7
34,18:24
34,19:3
34,20:28
34,21:28
34,22:28
34,23:13
34,24:11
34,25:7
34,26:28
34,27:30
34,28:30
34,29:30
34,31:13
34,32:13
34,41:7
34,57:16
34,58:28
34,59:1
34,68:6
34,69:11
34,70:19
35,27:2
35,28:2
35,29:2
36,1:11
36,2:11
36,3:11
36,5:11
36,6:6
36,7:7
36,8:19
36,9:16
36,10:7
36,11:11
36,12:11
36,13:16
36,14:3
36,16:16
36,17:7
36,18:24
36,19:3
36,20:28
36,21:28
36,22:28
36,23:13
36,24:11
36,25:7
36,26:28
36,27:30
36,28:30
36,29:30
36,31:13
36,32:13
36,35:28
36,41:7
36,44:28
36,48:1
36,49:2
36,51:28
36,52:7
36,54:7
36,55:2
36,56:1
36,57:16
36,58:28
36,59:1
36,60:24
36,61:24
36,62:28
36,63:14
36,65:2
36,66:24
36,67:24
36,68:6
36,69:11
36,70:19
37,1:11
37,2:11
37,3:11
37,5:11
37,6:6
37,7:7
37,8:19
37,9:16
37,10:7
37,11:11
37,12:11
37,13:16
37,14:3
37,16:16
37,17:7
37,18:24
37,19:3
37,20:28
37,21:28
37,22:28
37,23:13
37,24:11
37,25:7
37,26:28
37,27:30
37,28:30
37,29:30
37,31:13
37,32:13
37,35:28
37,41:7
37,44:28
37,48:1
37,49:2
37,51:28
37,52:7
37,54:7
37,55:2
37,56:1
37,57:16
37,58:28
37,59:1
37,60:24
37,61:24
37,62:28
37,63:14
37,65:2
37,66:24
37,67:24
37,68:6
37,69:11
37,70:19
38,1:11
38,2:11
38,3:11
38,5:11
38,6:6
38,7:7
38,8:19
38,9:16
38,10:7
38,11:11
38,12:11
38,13:16
38,14:3
38,16:16
38,17:7
38,18:24
38,19:3
38,20:28
38,21:28
38,22:28
38,23:13
38,24:11
38,25:7
38,26:28
38,27:30
38,28:30
38,29:30
38,31:13
38,32:13
38,35:28
38,41:7
38,44:28
38,48:1
38,49:2
38,51:28
38,52:7
38,54:7
38,55:2
38,56:1
38,57:16
38,58:28
38,59:1
38,60:24
38,61:24
38,62:28
38,63:14
38,65:2
38,66:24
38,67:24
38,68:6
38,69:11
38,70:19
39,1:10
39,2:10
39,3:10
39,5:10
39,6:5
39,7:6
39,8:18
39,9:15
39,10:6
39,11:10
39,12:10
39,13:15
39,14:2
39,16:15
39,17:6
39,18:23
39,19:2
39,20:27
39,21:27
39,22:27
39,23:12
39,24:10
39,25:6
39,26:27
39,27:29
39,28:29
39,29:29
39,31:12
39,32:12
39,35:27
39,41:6
39,44:27
39,49:1
39,51:27
39,52:6
39,54:6
39,55:1
39,57:15
39,58:27
39,60:23
39,61:23
39,62:27
39,63:13
39,65:1
39,66:23
39,67:23
39,68:5
39,69:10
39,70:18
40,1:10
40,2:10
40,3:10
40,5:10
40,6:5
40,7:6
40,8:18
40,9:15
40,10:6
40,11:10
40,12:10
40,13:15
40,14:2
40,16:15
40,17:6
40,18:23
40,19:2
40,20:27
40,21:27
40,22:27
40,23:12
40,24:10
40,25:6
40,26:27
40,27:29
40,28:29
40,29:29
40,31:12
40,32:12
40,35:27
40,41:6
40,44:27
40,49:1
40,51:27
40,52:6
40,54:6
40,55:1
40,57:15
40,58:27
40,60:23
40,61:23
40,62:27
40,63:13
40,65:1
40,66:23
40,67:23
40,68:5
40,69:10
40,70:18
41,1:4
41,2:4
41,3:4
41,5:4
41,8:12
41,9:9
41,11:4
41,12:4
41,13:9
41,16:9
41,18:17
41,20:21
41,21:21
41,22:21
41,23:6
41,24:4
41,26:21
41,27:23
41,28:23
41,29:23
41,31:6
41,32:6
41,35:21
41,44:21
41,51:21
41,57:9
41,58:21
41,60:17
41,61:17
41,62:21
41,63:7
41,66:17
41,67:17
41,69:4
41,70:12
42,20:4
42,21:4
42,22:4
42,26:4
42,27:6
42,28:6
42,29:6
42,35:4
42,44:4
42,51:4
42,58:4
42,62:4
43,20:4
43,21:4
43,22:4
43,26:4
43,27:6
43,28:6
43,29:6
43,35:4
43,44:4
43,51:4
43,58:4
43,62:4
44,27:2
44,28:2
44,29:2
45,1:14
45,2:14
45,3:14
45,5:14
45,6:9
45,7:10
45,8:22
45,9:19
45,10:10
45,11:14
45,12:14
45,13:19
45,14:6
45,16:19
45,17:10
45,18:27
45,19:6
45,20:31
45,21:31
45,22:31
45,23:16
45,24:14
45,25:10
45,26:31
45,27:33
45,28:33
45,29:33
45,31:16
45,32:16
45,33:3
45,34:3
45,35:31
45,36:3
45,37:3
45,38:3
45,39:4
45,40:4
45,41:10
45,42:27
45,43:27
45,44:31
45,48:4
45,49:5
45,51:31
45,52:10
45,54:10
45,55:5
45,56:4
45,57:19
45,58:31
45,59:4
45,60:27
45,61:27
45,62:31
45,63:17
45,64:3
45,65:5
45,66:27
45,67:27
45,68:9
45,69:14
45,70:22
46,1:14
46,2:14
46,3:14
46,5:14
46,6:9
46,7:10
46,8:22
46,9:19
46,10:10
46,11:14
46,12:14
46,13:19
46,14:6
46,16:19
46,17:10
46,18:27
46,19:6
46,20:31
46,21:31
46,22:31
46,23:16
46,24:14
46,25:10
46,26:31
46,27:33
46,28:33
46,29:33
46,31:16
46,32:16
46,33:3
46,34:3
46,35:31
46,36:3
46,37:3
46,38:3
46,39:4
46,40:4
46,41:10
46,42:27
46,43:27
46,44:31
46,48:4
46,49:5
46,51:31
46,52:10
46,54:10
46,55:5
46,56:4
46,57:19
46,58:31
46,59:4
46,60:27
46,61:27
46,62:31
46,63:17
46,64:3
46,65:5
46,66:27
46,67:27
46,68:9
46,69:14
46,70:22
47,1:11
47,2:11
47,3:11
47,5:11
47,6:6
47,7:7
47,8:19
47,9:16
47,10:7
47,11:11
47,12:11
47,13:16
47,14:3
47,16:16
47,17:7
47,18:24
47,19:3
47,20:28
47,21:28
47,22:28
47,23:13
47,24:11
47,25:7
47,26:28
47,27:30
47,28:30
47,29:30
47,31:13
47,32:13
47,35:28
47,39:1
47,40:1
47,41:7
47,42:24
47,43:24
47,44:28
47,48:1
47,49:2
47,51:28
47,52:7
47,54:7
47,55:2
47,56:1
47,57:16
47,58:28
47,59:1
47,60:24
47,61:24
47,62:28
47,63:14
47,65:2
47,66:24
47,67:24
47,68:6
47,69:11
47,70:19
48,1:10
48,2:10
48,3:10
48,5:10
48,6:5
48,7:6
48,8:18
48,9:15
48,10:6
48,11:10
48,12:10
48,13:15
48,14:2
48,16:15
48,17:6
48,18:23
48,19:2
48,20:27
48,21:27
48,22:27
48,23:12
48,24:10
48,25:6
48,26:27
48,27:29
48,28:29
48,29:29
48,31:12
48,32:12
48,35:27
48,41:6
48,42:23
48,43:23
48,44:27
48,51:27
48,52:6
48,54:6
48,55:1
48,57:15
48,58:27
48,60:23
48,61:23
48,62:27
48,63:13
48,65:1
48,66:23
48,67:23
48,68:5
48,69:10
48,70:18
49,1:9
49,2:9
49,3:9
49,5:9
49,6:4
49,7:5
49,8:17
49,9:14
49,10:5
49,11:9
49,12:9
49,13:14
49,14:1
49,16:14
49,17:5
49,18:22
49,19:1
49,20:26
49,21:26
49,22:26
49,23:11
49,24:9
49,25:5
49,26:26
49,27:28
49,28:28
49,29:28
49,31:11
49,32:11
49,35:26
49,41:5
49,42:22
49,43:22
49,44:26
49,51:26
49,52:5
49,54:5
49,57:14
49,58:26
49,60:22
49,61:22
49,62:26
49,63:12
49,66:22
49,67:22
49,68:4
49,69:9
49,70:17
50,1:9
50,2:9
50,3:9
50,5:9
50,6:4
50,7:5
50,8:17
50,9:14
50,10:5
50,11:9
50,12:9
50,13:14
50,14:1
50,16:14
50,17:5
50,18:22
50,19:1
50,20:26
50,21:26
50,22:26
50,23:11
50,24:9
50,25:5
50,26:26
50,27:28
50,28:28
50,29:28
50,31:11
50,32:11
50,35:26
50,41:5
50,42:22
50,43:22
50,44:26
50,51:26
50,52:5
50,54:5
50,57:14
50,58:26
50,60:22
50,61:22
50,62:26
50,63:12
50,66:22
50,67:22
50,68:4
50,69:9
50,70:17
51,27:2
51,28:2
51,29:2
52,1:4
52,2:4
52,3:4
52,5:4
52,8:12
52,9:9
52,11:4
52,12:4
52,13:9
52,16:9
52,18:17
52,20:21
52,21:21
52,22:21
52,23:6
52,24:4
52,26:21
52,27:23
52,28:23
52,29:23
52,31:6
52,32:6
52,35:21
52,42:17
52,43:17
52,44:21
52,51:21
52,57:9
52,58:21
52,60:17
52,61:17
52,62:21
52,63:7
52,66:17
52,67:17
52,69:4
52,70:12
53,1:14
53,2:14
53,3:14
53,5:14
53,6:9
53,7:10
53,8:22
53,9:19
53,10:10
53,11:14
53,12:14
53,13:19
53,14:6
53,16:19
53,17:10
53,18:27
53,19:6
53,20:31
53,21:31
53,22:31
53,23:16
53,24:14
53,25:10
53,26:31
53,27:33
53,28:33
53,29:33
53,31:16
53,32:16
53,33:3
53,34:3
53,35:31
53,36:3
53,37:3
53,38:3
53,39:4
53,40:4
53,41:10
53,42:27
53,43:27
53,44:31
53,47:3
53,48:4
53,49:5
53,50:5
53,51:31
53,52:10
53,56:4
53,57:19
53,58:31
53,59:4
53,60:27
53,61:27
53,62:31
53,63:17
53,64:3
53,65:5
53,66:27
53,67:27
53,68:9
53,69:14
53,70:22
54,1:4
54,2:4
54,3:4
54,5:4
54,8:12
54,9:9
54,11:4
54,12:4
54,13:9
54,16:9
54,18:17
54,20:21
54,21:21
54,22:21
54,23:6
54,24:4
54,26:21
54,27:23
54,28:23
54,29:23
54,31:6
54,32:6
54,35:21
54,42:17
54,43:17
54,44:21
54,51:21
54,57:9
54,58:21
54,60:17
54,61:17
54,62:21
54,63:7
54,66:17
54,67:17
54,69:4
54,70:12
55,1:9
55,2:9
55,3:9
55,5:9
55,6:4
55,7:5
55,8:17
55,9:14
55,10:5
55,11:9
55,12:9
55,13:14
55,14:1
55,16:14
55,17:5
55,18:22
55,19:1
55,20:26
55,21:26
55,22:26
55,23:11
55,24:9
55,25:5
55,26:26
55,27:28
55,28:28
55,29:28
55,31:11
55,32:11
55,35:26
55,41:5
55,42:22
55,43:22
55,44:26
55,51:26
55,52:5
55,54:5
55,57:14
55,58:26
55,60:22
55,61:22
55,62:26
55,63:12
55,66:22
55,67:22
55,68:4
55,69:9
55,70:17
56,1:10
56,2:10
56,3:10
56,5:10
56,6:5
56,7:6
56,8:18
56,9:15
56,10:6
56,11:10
56,12:10
56,13:15
56,14:2
56,16:15
56,17:6
56,18:23
56,19:2
56,20:27
56,21:27
56,22:27
56,23:12
56,24:10
56,25:6
56,26:27
56,27:29
56,28:29
56,29:29
56,31:12
56,32:12
56,35:27
56,41:6
56,42:23
56,43:23
56,44:27
56,49:1
56,50:1
56,51:27
56,52:6
56,54:6
56,55:1
56,57:15
56,58:27
56,60:23
56,61:23
56,62:27
56,63:13
56,65:1
56,66:23
56,67:23
56,68:5
56,69:10
56,70:18
57,8:3
57,18:8
57,20:12
57,21:12
57,22:12
57,26:12
57,27:14
57,28:14
57,29:14
57,35:12
57,42:8
57,43:8
57,44:12
57,51:12
57,61:8
57,62:12
57,66:8
57,67:8
57,70:3
58,27:2
58,28:2
58,29:2
59,1:10
59,2:10
59,3:10
59,5:10
59,6:5
59,7:6
59,8:18
59,9:15
59,10:6
59,11:10
59,12:10
59,13:15
59,14:2
59,16:15
59,17:6
59,18:23
59,19:2
59,20:27
59,21:27
59,22:27
59,23:12
59,24:10
59,25:6
59,26:27
59,27:29
59,28:29
59,29:29
59,31:12
59,32:12
59,35:27
59,41:6
59,42:23
59,43:23
59,44:27
59,49:1
59,50:1
59,51:27
59,52:6
59,54:6
59,55:1
59,57:15
59,58:27
59,61:23
59,62:27
59,63:13
59,65:1
59,66:23
59,67:23
59,68:5
59,69:10
59,70:18
60,20:4
60,21:4
60,22:4
60,26:4
60,27:6
60,28:6
60,29:6
60,35:4
60,44:4
60,51:4
60,58:4
60,62:4
61,20:4
61,21:4
61,22:4
61,26:4
61,27:6
61,28:6
61,29:6
61,35:4
61,44:4
61,51:4
61,58:4
61,62:4
62,27:2
62,28:2
62,29:2
63,8:5
63,9:2
63,13:2
63,16:2
63,18:10
63,20:14
63,21:14
63,22:14
63,26:14
63,27:16
63,28:16
63,29:16
63,35:14
63,42:10
63,43:10
63,44:14
63,51:14
63,57:2
63,58:14
63,60:10
63,61:10
63,62:14
63,70:5
64,1:11
64,2:11
64,3:11
64,5:11
64,6:6
64,7:7
64,8:19
64,9:16
64,10:7
64,11:11
64,12:11
64,13:16
64,14:3
64,16:16
64,17:7
64,18:24
64,19:3
64,20:28
64,21:28
64,22:28
64,23:13
64,24:11
64,25:7
64,26:28
64,27:30
64,28:30
64,29:30
64,31:13
64,32:13
64,35:28
64,39:1
64,40:1
64,41:7
64,42:24
64,43:24
64,44:28
64,48:1
64,49:2
64,50:2
64,51:28
64,52:7
64,54:7
64,55:2
64,56:1
64,57:16
64,58:28
64,59:1
64,60:24
64,61:24
64,62:28
64,63:14
64,68:6
64,69:11
64,70:19
65,1:9
65,2:9
65,3:9
65,5:9
65,6:4
65,7:5
65,8:17
65,9:14
65,10:5
65,11:9
65,12:9
65,13:14
65,14:1
65,16:14
65,17:5
65,18:22
65,19:1
65,20:26
65,21:26
65,22:26
65,23:11
65,24:9
65,25:5
65,26:26
65,27:28
65,28:28
65,29:28
65,31:11
65,32:11
65,35:26
65,41:5
65,42:22
65,43:22
65,44:26
65,51:26
65,52:5
65,54:5
65,57:14
65,58:26
65,60:22
65,61:22
65,62:26
65,63:12
65,66:22
65,67:22
65,68:4
65,69:9
65,70:17
66,20:4
66,21:4
66,22:4
66,26:4
66,27:6
66,28:6
66,29:6
66,35:4
66,44:4
66,51:4
66,58:4
66,62:4
67,20:4
67,21:4
67,22:4
67,26:4
67,27:6
67,28:6
67,29:6
67,35:4
67,44:4
67,51:4
67,58:4
67,62:4
68,1:5
68,2:5
68,3:5
68,5:5
68,7:1
68,8:13
68,9:10
68,10:1
68,11:5
68,12:5
68,13:10
68,16:10
68,17:1
68,18:18
68,20:22
68,21:22
68,22:22
68,23:7
68,24:5
68,25:1
68,26:22
68,27:24
68,28:24
68,29:24
68,31:7
68,32:7
68,35:22
68,41:1
68,42:18
68,43:18
68,44:22
68,51:22
68,52:1
68,54:1
68,57:10
68,58:22
68,60:18
68,61:18
68,62:22
68,63:8
68,66:18
68,67:18
68,69:5
68,70:13
69,8:8
69,9:5
69,13:5
69,16:5
69,18:13
69,20:17
69,21:17
69,22:17
69,23:2
69,26:17
69,27:19
69,28:19
69,29:19
69,31:2
69,32:2
69,35:17
69,42:13
69,43:13
69,44:17
69,51:17
69,57:5
69,58:17
69,60:13
69,61:13
69,62:17
69,63:3
69,66:13
69,67:13
69,70:8
70,18:5
70,20:9
70,21:9
70,22:9
70,26:9
70,27:11
70,28:11
70,29:11
70,35:9
70,42:5
70,43:5
70,44:9
70,51:9
70,58:9
70,60:5
70,61:5
70,62:9
70,66:5
70,67:5

<end>

<optimal SALBP-1 value>
23


<rand seed>
467321153

<Lower Bounds>
Lm1=22
Lms1=22
Lm2=14
Lm3=16
Lm4=22
Best=22

<Optimal Stations (Iterations: 10)>
31
